results/res_prop_muc/res_Cimatti_mathsat_cores/QF_UF/PEQ002_size5.smt
(benchmark PEQ002_size5.smt
:source {
CADE ATP System competition. See http://www.cs.miami.edu/~tptp/CASC
 for more information. 

This benchmark was obtained by trying to find a finite model of a first-order 
formula (Albert Oliveras).
}
:status unsat
:category { crafted }
:difficulty { 1 }
:logic QF_UF
:extrafuns ((f1 U U U))
:extrafuns ((f2 U U U))
:extrafuns ((c3 U))
:extrafuns ((c4 U))
:extrafuns ((c5 U))
:extrafuns ((c_0 U))
:extrafuns ((c_1 U))
:extrafuns ((c_2 U))
:extrafuns ((c_3 U))
:extrafuns ((c_4 U))
:formula 
( and 
( distinct c_0 c_1 c_2 c_3 c_4 )(= (f2 (f1 c_0 c_0) c_0) (f1 (f2 c_0 c_0) (f2 c_0 c_0))) (= (f2 (f1 c_0 c_0) c_1) (f1 (f2 c_0 c_1) (f2 c_0 c_1))) (= (f2 (f1 c_0 c_0) c_2) (f1 (f2 c_0 c_2) (f2 c_0 c_2))) (= (f2 (f1 c_0 c_0) c_3) (f1 (f2 c_0 c_3) (f2 c_0 c_3))) (= (f2 (f1 c_0 c_0) c_4) (f1 (f2 c_0 c_4) (f2 c_0 c_4))) (= (f2 (f1 c_0 c_1) c_0) (f1 (f2 c_0 c_0) (f2 c_1 c_0))) (= (f2 (f1 c_0 c_1) c_1) (f1 (f2 c_0 c_1) (f2 c_1 c_1))) (= (f2 (f1 c_0 c_1) c_2) (f1 (f2 c_0 c_2) (f2 c_1 c_2))) (= (f2 (f1 c_0 c_1) c_3) (f1 (f2 c_0 c_3) (f2 c_1 c_3))) (= (f2 (f1 c_0 c_1) c_4) (f1 (f2 c_0 c_4) (f2 c_1 c_4))) (= (f2 (f1 c_0 c_2) c_0) (f1 (f2 c_0 c_0) (f2 c_2 c_0))) (= (f2 (f1 c_0 c_2) c_1) (f1 (f2 c_0 c_1) (f2 c_2 c_1))) (= (f2 (f1 c_0 c_2) c_2) (f1 (f2 c_0 c_2) (f2 c_2 c_2))) (= (f2 (f1 c_0 c_2) c_3) (f1 (f2 c_0 c_3) (f2 c_2 c_3))) (= (f2 (f1 c_0 c_2) c_4) (f1 (f2 c_0 c_4) (f2 c_2 c_4))) (= (f2 (f1 c_0 c_3) c_0) (f1 (f2 c_0 c_0) (f2 c_3 c_0))) (= (f2 (f1 c_0 c_3) c_1) (f1 (f2 c_0 c_1) (f2 c_3 c_1))) (= (f2 (f1 c_0 c_3) c_2) (f1 (f2 c_0 c_2) (f2 c_3 c_2))) (= (f2 (f1 c_0 c_3) c_3) (f1 (f2 c_0 c_3) (f2 c_3 c_3))) (= (f2 (f1 c_0 c_3) c_4) (f1 (f2 c_0 c_4) (f2 c_3 c_4))) (= (f2 (f1 c_0 c_4) c_0) (f1 (f2 c_0 c_0) (f2 c_4 c_0))) (= (f2 (f1 c_0 c_4) c_1) (f1 (f2 c_0 c_1) (f2 c_4 c_1))) (= (f2 (f1 c_0 c_4) c_2) (f1 (f2 c_0 c_2) (f2 c_4 c_2))) (= (f2 (f1 c_0 c_4) c_3) (f1 (f2 c_0 c_3) (f2 c_4 c_3))) (= (f2 (f1 c_0 c_4) c_4) (f1 (f2 c_0 c_4) (f2 c_4 c_4))) (= (f2 (f1 c_1 c_0) c_0) (f1 (f2 c_1 c_0) (f2 c_0 c_0))) (= (f2 (f1 c_1 c_0) c_1) (f1 (f2 c_1 c_1) (f2 c_0 c_1))) (= (f2 (f1 c_1 c_0) c_2) (f1 (f2 c_1 c_2) (f2 c_0 c_2))) (= (f2 (f1 c_1 c_0) c_3) (f1 (f2 c_1 c_3) (f2 c_0 c_3))) (= (f2 (f1 c_1 c_0) c_4) (f1 (f2 c_1 c_4) (f2 c_0 c_4))) (= (f2 (f1 c_1 c_1) c_0) (f1 (f2 c_1 c_0) (f2 c_1 c_0))) (= (f2 (f1 c_1 c_1) c_1) (f1 (f2 c_1 c_1) (f2 c_1 c_1))) (= (f2 (f1 c_1 c_1) c_2) (f1 (f2 c_1 c_2) (f2 c_1 c_2))) (= (f2 (f1 c_1 c_1) c_3) (f1 (f2 c_1 c_3) (f2 c_1 c_3))) (= (f2 (f1 c_1 c_1) c_4) (f1 (f2 c_1 c_4) (f2 c_1 c_4))) (= (f2 (f1 c_1 c_2) c_0) (f1 (f2 c_1 c_0) (f2 c_2 c_0))) (= (f2 (f1 c_1 c_2) c_1) (f1 (f2 c_1 c_1) (f2 c_2 c_1))) (= (f2 (f1 c_1 c_2) c_2) (f1 (f2 c_1 c_2) (f2 c_2 c_2))) (= (f2 (f1 c_1 c_2) c_3) (f1 (f2 c_1 c_3) (f2 c_2 c_3))) (= (f2 (f1 c_1 c_2) c_4) (f1 (f2 c_1 c_4) (f2 c_2 c_4))) (= (f2 (f1 c_1 c_3) c_0) (f1 (f2 c_1 c_0) (f2 c_3 c_0))) (= (f2 (f1 c_1 c_3) c_1) (f1 (f2 c_1 c_1) (f2 c_3 c_1))) (= (f2 (f1 c_1 c_3) c_2) (f1 (f2 c_1 c_2) (f2 c_3 c_2))) (= (f2 (f1 c_1 c_3) c_3) (f1 (f2 c_1 c_3) (f2 c_3 c_3))) (= (f2 (f1 c_1 c_3) c_4) (f1 (f2 c_1 c_4) (f2 c_3 c_4))) (= (f2 (f1 c_1 c_4) c_0) (f1 (f2 c_1 c_0) (f2 c_4 c_0))) (= (f2 (f1 c_1 c_4) c_1) (f1 (f2 c_1 c_1) (f2 c_4 c_1))) (= (f2 (f1 c_1 c_4) c_2) (f1 (f2 c_1 c_2) (f2 c_4 c_2))) (= (f2 (f1 c_1 c_4) c_3) (f1 (f2 c_1 c_3) (f2 c_4 c_3))) (= (f2 (f1 c_1 c_4) c_4) (f1 (f2 c_1 c_4) (f2 c_4 c_4))) (= (f2 (f1 c_2 c_0) c_0) (f1 (f2 c_2 c_0) (f2 c_0 c_0))) (= (f2 (f1 c_2 c_0) c_1) (f1 (f2 c_2 c_1) (f2 c_0 c_1))) (= (f2 (f1 c_2 c_0) c_2) (f1 (f2 c_2 c_2) (f2 c_0 c_2))) (= (f2 (f1 c_2 c_0) c_3) (f1 (f2 c_2 c_3) (f2 c_0 c_3))) (= (f2 (f1 c_2 c_0) c_4) (f1 (f2 c_2 c_4) (f2 c_0 c_4))) (= (f2 (f1 c_2 c_1) c_0) (f1 (f2 c_2 c_0) (f2 c_1 c_0))) (= (f2 (f1 c_2 c_1) c_1) (f1 (f2 c_2 c_1) (f2 c_1 c_1))) (= (f2 (f1 c_2 c_1) c_2) (f1 (f2 c_2 c_2) (f2 c_1 c_2))) (= (f2 (f1 c_2 c_1) c_3) (f1 (f2 c_2 c_3) (f2 c_1 c_3))) (= (f2 (f1 c_2 c_1) c_4) (f1 (f2 c_2 c_4) (f2 c_1 c_4))) (= (f2 (f1 c_2 c_2) c_0) (f1 (f2 c_2 c_0) (f2 c_2 c_0))) (= (f2 (f1 c_2 c_2) c_1) (f1 (f2 c_2 c_1) (f2 c_2 c_1))) (= (f2 (f1 c_2 c_2) c_2) (f1 (f2 c_2 c_2) (f2 c_2 c_2))) (= (f2 (f1 c_2 c_2) c_3) (f1 (f2 c_2 c_3) (f2 c_2 c_3))) (= (f2 (f1 c_2 c_2) c_4) (f1 (f2 c_2 c_4) (f2 c_2 c_4))) (= (f2 (f1 c_2 c_3) c_0) (f1 (f2 c_2 c_0) (f2 c_3 c_0))) (= (f2 (f1 c_2 c_3) c_1) (f1 (f2 c_2 c_1) (f2 c_3 c_1))) (= (f2 (f1 c_2 c_3) c_2) (f1 (f2 c_2 c_2) (f2 c_3 c_2))) (= (f2 (f1 c_2 c_3) c_3) (f1 (f2 c_2 c_3) (f2 c_3 c_3))) (= (f2 (f1 c_2 c_3) c_4) (f1 (f2 c_2 c_4) (f2 c_3 c_4))) (= (f2 (f1 c_2 c_4) c_0) (f1 (f2 c_2 c_0) (f2 c_4 c_0))) (= (f2 (f1 c_2 c_4) c_1) (f1 (f2 c_2 c_1) (f2 c_4 c_1))) (= (f2 (f1 c_2 c_4) c_2) (f1 (f2 c_2 c_2) (f2 c_4 c_2))) (= (f2 (f1 c_2 c_4) c_3) (f1 (f2 c_2 c_3) (f2 c_4 c_3))) (= (f2 (f1 c_2 c_4) c_4) (f1 (f2 c_2 c_4) (f2 c_4 c_4))) (= (f2 (f1 c_3 c_0) c_0) (f1 (f2 c_3 c_0) (f2 c_0 c_0))) (= (f2 (f1 c_3 c_0) c_1) (f1 (f2 c_3 c_1) (f2 c_0 c_1))) (= (f2 (f1 c_3 c_0) c_2) (f1 (f2 c_3 c_2) (f2 c_0 c_2))) (= (f2 (f1 c_3 c_0) c_3) (f1 (f2 c_3 c_3) (f2 c_0 c_3))) (= (f2 (f1 c_3 c_0) c_4) (f1 (f2 c_3 c_4) (f2 c_0 c_4))) (= (f2 (f1 c_3 c_1) c_0) (f1 (f2 c_3 c_0) (f2 c_1 c_0))) (= (f2 (f1 c_3 c_1) c_1) (f1 (f2 c_3 c_1) (f2 c_1 c_1))) (= (f2 (f1 c_3 c_1) c_2) (f1 (f2 c_3 c_2) (f2 c_1 c_2))) (= (f2 (f1 c_3 c_1) c_3) (f1 (f2 c_3 c_3) (f2 c_1 c_3))) (= (f2 (f1 c_3 c_1) c_4) (f1 (f2 c_3 c_4) (f2 c_1 c_4))) (= (f2 (f1 c_3 c_2) c_0) (f1 (f2 c_3 c_0) (f2 c_2 c_0))) (= (f2 (f1 c_3 c_2) c_1) (f1 (f2 c_3 c_1) (f2 c_2 c_1))) (= (f2 (f1 c_3 c_2) c_2) (f1 (f2 c_3 c_2) (f2 c_2 c_2))) (= (f2 (f1 c_3 c_2) c_3) (f1 (f2 c_3 c_3) (f2 c_2 c_3))) (= (f2 (f1 c_3 c_2) c_4) (f1 (f2 c_3 c_4) (f2 c_2 c_4))) (= (f2 (f1 c_3 c_3) c_0) (f1 (f2 c_3 c_0) (f2 c_3 c_0))) (= (f2 (f1 c_3 c_3) c_1) (f1 (f2 c_3 c_1) (f2 c_3 c_1))) (= (f2 (f1 c_3 c_3) c_2) (f1 (f2 c_3 c_2) (f2 c_3 c_2))) (= (f2 (f1 c_3 c_3) c_3) (f1 (f2 c_3 c_3) (f2 c_3 c_3))) (= (f2 (f1 c_3 c_3) c_4) (f1 (f2 c_3 c_4) (f2 c_3 c_4))) (= (f2 (f1 c_3 c_4) c_0) (f1 (f2 c_3 c_0) (f2 c_4 c_0))) (= (f2 (f1 c_3 c_4) c_1) (f1 (f2 c_3 c_1) (f2 c_4 c_1))) (= (f2 (f1 c_3 c_4) c_2) (f1 (f2 c_3 c_2) (f2 c_4 c_2))) (= (f2 (f1 c_3 c_4) c_3) (f1 (f2 c_3 c_3) (f2 c_4 c_3))) (= (f2 (f1 c_3 c_4) c_4) (f1 (f2 c_3 c_4) (f2 c_4 c_4))) (= (f2 (f1 c_4 c_0) c_0) (f1 (f2 c_4 c_0) (f2 c_0 c_0))) (= (f2 (f1 c_4 c_0) c_1) (f1 (f2 c_4 c_1) (f2 c_0 c_1))) (= (f2 (f1 c_4 c_0) c_2) (f1 (f2 c_4 c_2) (f2 c_0 c_2))) (= (f2 (f1 c_4 c_0) c_3) (f1 (f2 c_4 c_3) (f2 c_0 c_3))) (= (f2 (f1 c_4 c_0) c_4) (f1 (f2 c_4 c_4) (f2 c_0 c_4))) (= (f2 (f1 c_4 c_1) c_0) (f1 (f2 c_4 c_0) (f2 c_1 c_0))) (= (f2 (f1 c_4 c_1) c_1) (f1 (f2 c_4 c_1) (f2 c_1 c_1))) (= (f2 (f1 c_4 c_1) c_2) (f1 (f2 c_4 c_2) (f2 c_1 c_2))) (= (f2 (f1 c_4 c_1) c_3) (f1 (f2 c_4 c_3) (f2 c_1 c_3))) (= (f2 (f1 c_4 c_1) c_4) (f1 (f2 c_4 c_4) (f2 c_1 c_4))) (= (f2 (f1 c_4 c_2) c_0) (f1 (f2 c_4 c_0) (f2 c_2 c_0))) (= (f2 (f1 c_4 c_2) c_1) (f1 (f2 c_4 c_1) (f2 c_2 c_1))) (= (f2 (f1 c_4 c_2) c_2) (f1 (f2 c_4 c_2) (f2 c_2 c_2))) (= (f2 (f1 c_4 c_2) c_3) (f1 (f2 c_4 c_3) (f2 c_2 c_3))) (= (f2 (f1 c_4 c_2) c_4) (f1 (f2 c_4 c_4) (f2 c_2 c_4))) (= (f2 (f1 c_4 c_3) c_0) (f1 (f2 c_4 c_0) (f2 c_3 c_0))) (= (f2 (f1 c_4 c_3) c_1) (f1 (f2 c_4 c_1) (f2 c_3 c_1))) (= (f2 (f1 c_4 c_3) c_2) (f1 (f2 c_4 c_2) (f2 c_3 c_2))) (= (f2 (f1 c_4 c_3) c_3) (f1 (f2 c_4 c_3) (f2 c_3 c_3))) (= (f2 (f1 c_4 c_3) c_4) (f1 (f2 c_4 c_4) (f2 c_3 c_4))) (= (f2 (f1 c_4 c_4) c_0) (f1 (f2 c_4 c_0) (f2 c_4 c_0))) (= (f2 (f1 c_4 c_4) c_1) (f1 (f2 c_4 c_1) (f2 c_4 c_1))) (= (f2 (f1 c_4 c_4) c_2) (f1 (f2 c_4 c_2) (f2 c_4 c_2))) (= (f2 (f1 c_4 c_4) c_3) (f1 (f2 c_4 c_3) (f2 c_4 c_3))) (= (f2 (f1 c_4 c_4) c_4) (f1 (f2 c_4 c_4) (f2 c_4 c_4))) (= (f1 c_0 c_0) (f1 c_0 (f1 c_0 (f2 c_0 c_0)))) (= (f1 c_0 c_1) (f1 c_1 (f1 c_0 (f2 c_0 c_1)))) (= (f1 c_0 c_2) (f1 c_2 (f1 c_0 (f2 c_0 c_2)))) (= (f1 c_0 c_3) (f1 c_3 (f1 c_0 (f2 c_0 c_3)))) (= (f1 c_0 c_4) (f1 c_4 (f1 c_0 (f2 c_0 c_4)))) (= (f1 c_1 c_0) (f1 c_0 (f1 c_1 (f2 c_1 c_0)))) (= (f1 c_1 c_1) (f1 c_1 (f1 c_1 (f2 c_1 c_1)))) (= (f1 c_1 c_2) (f1 c_2 (f1 c_1 (f2 c_1 c_2)))) (= (f1 c_1 c_3) (f1 c_3 (f1 c_1 (f2 c_1 c_3)))) (= (f1 c_1 c_4) (f1 c_4 (f1 c_1 (f2 c_1 c_4)))) (= (f1 c_2 c_0) (f1 c_0 (f1 c_2 (f2 c_2 c_0)))) (= (f1 c_2 c_1) (f1 c_1 (f1 c_2 (f2 c_2 c_1)))) (= (f1 c_2 c_2) (f1 c_2 (f1 c_2 (f2 c_2 c_2)))) (= (f1 c_2 c_3) (f1 c_3 (f1 c_2 (f2 c_2 c_3)))) (= (f1 c_2 c_4) (f1 c_4 (f1 c_2 (f2 c_2 c_4)))) (= (f1 c_3 c_0) (f1 c_0 (f1 c_3 (f2 c_3 c_0)))) (= (f1 c_3 c_1) (f1 c_1 (f1 c_3 (f2 c_3 c_1)))) (= (f1 c_3 c_2) (f1 c_2 (f1 c_3 (f2 c_3 c_2)))) (= (f1 c_3 c_3) (f1 c_3 (f1 c_3 (f2 c_3 c_3)))) (= (f1 c_3 c_4) (f1 c_4 (f1 c_3 (f2 c_3 c_4)))) (= (f1 c_4 c_0) (f1 c_0 (f1 c_4 (f2 c_4 c_0)))) (= (f1 c_4 c_1) (f1 c_1 (f1 c_4 (f2 c_4 c_1)))) (= (f1 c_4 c_2) (f1 c_2 (f1 c_4 (f2 c_4 c_2)))) (= (f1 c_4 c_3) (f1 c_3 (f1 c_4 (f2 c_4 c_3)))) (= (f1 c_4 c_4) (f1 c_4 (f1 c_4 (f2 c_4 c_4)))) (= (f1 (f1 c_0 c_0) c_0) (f1 c_0 (f1 c_0 c_0))) (= (f1 (f1 c_0 c_0) c_1) (f1 c_0 (f1 c_0 c_1))) (= (f1 (f1 c_0 c_0) c_2) (f1 c_0 (f1 c_0 c_2))) (= (f1 (f1 c_0 c_0) c_3) (f1 c_0 (f1 c_0 c_3))) (= (f1 (f1 c_0 c_0) c_4) (f1 c_0 (f1 c_0 c_4))) (= (f1 (f1 c_0 c_1) c_0) (f1 c_0 (f1 c_1 c_0))) (= (f1 (f1 c_0 c_1) c_1) (f1 c_0 (f1 c_1 c_1))) (= (f1 (f1 c_0 c_1) c_2) (f1 c_0 (f1 c_1 c_2))) (= (f1 (f1 c_0 c_1) c_3) (f1 c_0 (f1 c_1 c_3))) (= (f1 (f1 c_0 c_1) c_4) (f1 c_0 (f1 c_1 c_4))) (= (f1 (f1 c_0 c_2) c_0) (f1 c_0 (f1 c_2 c_0))) (= (f1 (f1 c_0 c_2) c_1) (f1 c_0 (f1 c_2 c_1))) (= (f1 (f1 c_0 c_2) c_2) (f1 c_0 (f1 c_2 c_2))) (= (f1 (f1 c_0 c_2) c_3) (f1 c_0 (f1 c_2 c_3))) (= (f1 (f1 c_0 c_2) c_4) (f1 c_0 (f1 c_2 c_4))) (= (f1 (f1 c_0 c_3) c_0) (f1 c_0 (f1 c_3 c_0))) (= (f1 (f1 c_0 c_3) c_1) (f1 c_0 (f1 c_3 c_1))) (= (f1 (f1 c_0 c_3) c_2) (f1 c_0 (f1 c_3 c_2))) (= (f1 (f1 c_0 c_3) c_3) (f1 c_0 (f1 c_3 c_3))) (= (f1 (f1 c_0 c_3) c_4) (f1 c_0 (f1 c_3 c_4))) (= (f1 (f1 c_0 c_4) c_0) (f1 c_0 (f1 c_4 c_0))) (= (f1 (f1 c_0 c_4) c_1) (f1 c_0 (f1 c_4 c_1))) (= (f1 (f1 c_0 c_4) c_2) (f1 c_0 (f1 c_4 c_2))) (= (f1 (f1 c_0 c_4) c_3) (f1 c_0 (f1 c_4 c_3))) (= (f1 (f1 c_0 c_4) c_4) (f1 c_0 (f1 c_4 c_4))) (= (f1 (f1 c_1 c_0) c_0) (f1 c_1 (f1 c_0 c_0))) (= (f1 (f1 c_1 c_0) c_1) (f1 c_1 (f1 c_0 c_1))) (= (f1 (f1 c_1 c_0) c_2) (f1 c_1 (f1 c_0 c_2))) (= (f1 (f1 c_1 c_0) c_3) (f1 c_1 (f1 c_0 c_3))) (= (f1 (f1 c_1 c_0) c_4) (f1 c_1 (f1 c_0 c_4))) (= (f1 (f1 c_1 c_1) c_0) (f1 c_1 (f1 c_1 c_0))) (= (f1 (f1 c_1 c_1) c_1) (f1 c_1 (f1 c_1 c_1))) (= (f1 (f1 c_1 c_1) c_2) (f1 c_1 (f1 c_1 c_2))) (= (f1 (f1 c_1 c_1) c_3) (f1 c_1 (f1 c_1 c_3))) (= (f1 (f1 c_1 c_1) c_4) (f1 c_1 (f1 c_1 c_4))) (= (f1 (f1 c_1 c_2) c_0) (f1 c_1 (f1 c_2 c_0))) (= (f1 (f1 c_1 c_2) c_1) (f1 c_1 (f1 c_2 c_1))) (= (f1 (f1 c_1 c_2) c_2) (f1 c_1 (f1 c_2 c_2))) (= (f1 (f1 c_1 c_2) c_3) (f1 c_1 (f1 c_2 c_3))) (= (f1 (f1 c_1 c_2) c_4) (f1 c_1 (f1 c_2 c_4))) (= (f1 (f1 c_1 c_3) c_0) (f1 c_1 (f1 c_3 c_0))) (= (f1 (f1 c_1 c_3) c_1) (f1 c_1 (f1 c_3 c_1))) (= (f1 (f1 c_1 c_3) c_2) (f1 c_1 (f1 c_3 c_2))) (= (f1 (f1 c_1 c_3) c_3) (f1 c_1 (f1 c_3 c_3))) (= (f1 (f1 c_1 c_3) c_4) (f1 c_1 (f1 c_3 c_4))) (= (f1 (f1 c_1 c_4) c_0) (f1 c_1 (f1 c_4 c_0))) (= (f1 (f1 c_1 c_4) c_1) (f1 c_1 (f1 c_4 c_1))) (= (f1 (f1 c_1 c_4) c_2) (f1 c_1 (f1 c_4 c_2))) (= (f1 (f1 c_1 c_4) c_3) (f1 c_1 (f1 c_4 c_3))) (= (f1 (f1 c_1 c_4) c_4) (f1 c_1 (f1 c_4 c_4))) (= (f1 (f1 c_2 c_0) c_0) (f1 c_2 (f1 c_0 c_0))) (= (f1 (f1 c_2 c_0) c_1) (f1 c_2 (f1 c_0 c_1))) (= (f1 (f1 c_2 c_0) c_2) (f1 c_2 (f1 c_0 c_2))) (= (f1 (f1 c_2 c_0) c_3) (f1 c_2 (f1 c_0 c_3))) (= (f1 (f1 c_2 c_0) c_4) (f1 c_2 (f1 c_0 c_4))) (= (f1 (f1 c_2 c_1) c_0) (f1 c_2 (f1 c_1 c_0))) (= (f1 (f1 c_2 c_1) c_1) (f1 c_2 (f1 c_1 c_1))) (= (f1 (f1 c_2 c_1) c_2) (f1 c_2 (f1 c_1 c_2))) (= (f1 (f1 c_2 c_1) c_3) (f1 c_2 (f1 c_1 c_3))) (= (f1 (f1 c_2 c_1) c_4) (f1 c_2 (f1 c_1 c_4))) (= (f1 (f1 c_2 c_2) c_0) (f1 c_2 (f1 c_2 c_0))) (= (f1 (f1 c_2 c_2) c_1) (f1 c_2 (f1 c_2 c_1))) (= (f1 (f1 c_2 c_2) c_2) (f1 c_2 (f1 c_2 c_2))) (= (f1 (f1 c_2 c_2) c_3) (f1 c_2 (f1 c_2 c_3))) (= (f1 (f1 c_2 c_2) c_4) (f1 c_2 (f1 c_2 c_4))) (= (f1 (f1 c_2 c_3) c_0) (f1 c_2 (f1 c_3 c_0))) (= (f1 (f1 c_2 c_3) c_1) (f1 c_2 (f1 c_3 c_1))) (= (f1 (f1 c_2 c_3) c_2) (f1 c_2 (f1 c_3 c_2))) (= (f1 (f1 c_2 c_3) c_3) (f1 c_2 (f1 c_3 c_3))) (= (f1 (f1 c_2 c_3) c_4) (f1 c_2 (f1 c_3 c_4))) (= (f1 (f1 c_2 c_4) c_0) (f1 c_2 (f1 c_4 c_0))) (= (f1 (f1 c_2 c_4) c_1) (f1 c_2 (f1 c_4 c_1))) (= (f1 (f1 c_2 c_4) c_2) (f1 c_2 (f1 c_4 c_2))) (= (f1 (f1 c_2 c_4) c_3) (f1 c_2 (f1 c_4 c_3))) (= (f1 (f1 c_2 c_4) c_4) (f1 c_2 (f1 c_4 c_4))) (= (f1 (f1 c_3 c_0) c_0) (f1 c_3 (f1 c_0 c_0))) (= (f1 (f1 c_3 c_0) c_1) (f1 c_3 (f1 c_0 c_1))) (= (f1 (f1 c_3 c_0) c_2) (f1 c_3 (f1 c_0 c_2))) (= (f1 (f1 c_3 c_0) c_3) (f1 c_3 (f1 c_0 c_3))) (= (f1 (f1 c_3 c_0) c_4) (f1 c_3 (f1 c_0 c_4))) (= (f1 (f1 c_3 c_1) c_0) (f1 c_3 (f1 c_1 c_0))) (= (f1 (f1 c_3 c_1) c_1) (f1 c_3 (f1 c_1 c_1))) (= (f1 (f1 c_3 c_1) c_2) (f1 c_3 (f1 c_1 c_2))) (= (f1 (f1 c_3 c_1) c_3) (f1 c_3 (f1 c_1 c_3))) (= (f1 (f1 c_3 c_1) c_4) (f1 c_3 (f1 c_1 c_4))) (= (f1 (f1 c_3 c_2) c_0) (f1 c_3 (f1 c_2 c_0))) (= (f1 (f1 c_3 c_2) c_1) (f1 c_3 (f1 c_2 c_1))) (= (f1 (f1 c_3 c_2) c_2) (f1 c_3 (f1 c_2 c_2))) (= (f1 (f1 c_3 c_2) c_3) (f1 c_3 (f1 c_2 c_3))) (= (f1 (f1 c_3 c_2) c_4) (f1 c_3 (f1 c_2 c_4))) (= (f1 (f1 c_3 c_3) c_0) (f1 c_3 (f1 c_3 c_0))) (= (f1 (f1 c_3 c_3) c_1) (f1 c_3 (f1 c_3 c_1))) (= (f1 (f1 c_3 c_3) c_2) (f1 c_3 (f1 c_3 c_2))) (= (f1 (f1 c_3 c_3) c_3) (f1 c_3 (f1 c_3 c_3))) (= (f1 (f1 c_3 c_3) c_4) (f1 c_3 (f1 c_3 c_4))) (= (f1 (f1 c_3 c_4) c_0) (f1 c_3 (f1 c_4 c_0))) (= (f1 (f1 c_3 c_4) c_1) (f1 c_3 (f1 c_4 c_1))) (= (f1 (f1 c_3 c_4) c_2) (f1 c_3 (f1 c_4 c_2))) (= (f1 (f1 c_3 c_4) c_3) (f1 c_3 (f1 c_4 c_3))) (= (f1 (f1 c_3 c_4) c_4) (f1 c_3 (f1 c_4 c_4))) (= (f1 (f1 c_4 c_0) c_0) (f1 c_4 (f1 c_0 c_0))) (= (f1 (f1 c_4 c_0) c_1) (f1 c_4 (f1 c_0 c_1))) (= (f1 (f1 c_4 c_0) c_2) (f1 c_4 (f1 c_0 c_2))) (= (f1 (f1 c_4 c_0) c_3) (f1 c_4 (f1 c_0 c_3))) (= (f1 (f1 c_4 c_0) c_4) (f1 c_4 (f1 c_0 c_4))) (= (f1 (f1 c_4 c_1) c_0) (f1 c_4 (f1 c_1 c_0))) (= (f1 (f1 c_4 c_1) c_1) (f1 c_4 (f1 c_1 c_1))) (= (f1 (f1 c_4 c_1) c_2) (f1 c_4 (f1 c_1 c_2))) (= (f1 (f1 c_4 c_1) c_3) (f1 c_4 (f1 c_1 c_3))) (= (f1 (f1 c_4 c_1) c_4) (f1 c_4 (f1 c_1 c_4))) (= (f1 (f1 c_4 c_2) c_0) (f1 c_4 (f1 c_2 c_0))) (= (f1 (f1 c_4 c_2) c_1) (f1 c_4 (f1 c_2 c_1))) (= (f1 (f1 c_4 c_2) c_2) (f1 c_4 (f1 c_2 c_2))) (= (f1 (f1 c_4 c_2) c_3) (f1 c_4 (f1 c_2 c_3))) (= (f1 (f1 c_4 c_2) c_4) (f1 c_4 (f1 c_2 c_4))) (= (f1 (f1 c_4 c_3) c_0) (f1 c_4 (f1 c_3 c_0))) (= (f1 (f1 c_4 c_3) c_1) (f1 c_4 (f1 c_3 c_1))) (= (f1 (f1 c_4 c_3) c_2) (f1 c_4 (f1 c_3 c_2))) (= (f1 (f1 c_4 c_3) c_3) (f1 c_4 (f1 c_3 c_3))) (= (f1 (f1 c_4 c_3) c_4) (f1 c_4 (f1 c_3 c_4))) (= (f1 (f1 c_4 c_4) c_0) (f1 c_4 (f1 c_4 c_0))) (= (f1 (f1 c_4 c_4) c_1) (f1 c_4 (f1 c_4 c_1))) (= (f1 (f1 c_4 c_4) c_2) (f1 c_4 (f1 c_4 c_2))) (= (f1 (f1 c_4 c_4) c_3) (f1 c_4 (f1 c_4 c_3))) (= (f1 (f1 c_4 c_4) c_4) (f1 c_4 (f1 c_4 c_4))) (not (= (f1 (f2 c3 c4) c5) (f1 c5 (f2 c3 c4)))) (or (not (= (f1 c_0 c_0) (f1 c_0 c_0))) (= c_0 c_0) )(or (not (= (f1 c_0 c_0) (f1 c_0 c_1))) (= c_0 c_1) )(or (not (= (f1 c_0 c_0) (f1 c_0 c_2))) (= c_0 c_2) )(or (not (= (f1 c_0 c_0) (f1 c_0 c_3))) (= c_0 c_3) )(or (not (= (f1 c_0 c_0) (f1 c_0 c_4))) (= c_0 c_4) )(or (not (= (f1 c_0 c_1) (f1 c_0 c_0))) (= c_1 c_0) )(or (not (= (f1 c_0 c_1) (f1 c_0 c_1))) (= c_1 c_1) )(or (not (= (f1 c_0 c_1) (f1 c_0 c_2))) (= c_1 c_2) )(or (not (= (f1 c_0 c_1) (f1 c_0 c_3))) (= c_1 c_3) )(or (not (= (f1 c_0 c_1) (f1 c_0 c_4))) (= c_1 c_4) )(or (not (= (f1 c_0 c_2) (f1 c_0 c_0))) (= c_2 c_0) )(or (not (= (f1 c_0 c_2) (f1 c_0 c_1))) (= c_2 c_1) )(or (not (= (f1 c_0 c_2) (f1 c_0 c_2))) (= c_2 c_2) )(or (not (= (f1 c_0 c_2) (f1 c_0 c_3))) (= c_2 c_3) )(or (not (= (f1 c_0 c_2) (f1 c_0 c_4))) (= c_2 c_4) )(or (not (= (f1 c_0 c_3) (f1 c_0 c_0))) (= c_3 c_0) )(or (not (= (f1 c_0 c_3) (f1 c_0 c_1))) (= c_3 c_1) )(or (not (= (f1 c_0 c_3) (f1 c_0 c_2))) (= c_3 c_2) )(or (not (= (f1 c_0 c_3) (f1 c_0 c_3))) (= c_3 c_3) )(or (not (= (f1 c_0 c_3) (f1 c_0 c_4))) (= c_3 c_4) )(or (not (= (f1 c_0 c_4) (f1 c_0 c_0))) (= c_4 c_0) )(or (not (= (f1 c_0 c_4) (f1 c_0 c_1))) (= c_4 c_1) )(or (not (= (f1 c_0 c_4) (f1 c_0 c_2))) (= c_4 c_2) )(or (not (= (f1 c_0 c_4) (f1 c_0 c_3))) (= c_4 c_3) )(or (not (= (f1 c_0 c_4) (f1 c_0 c_4))) (= c_4 c_4) )(or (not (= (f1 c_1 c_0) (f1 c_1 c_0))) (= c_0 c_0) )(or (not (= (f1 c_1 c_0) (f1 c_1 c_1))) (= c_0 c_1) )(or (not (= (f1 c_1 c_0) (f1 c_1 c_2))) (= c_0 c_2) )(or (not (= (f1 c_1 c_0) (f1 c_1 c_3))) (= c_0 c_3) )(or (not (= (f1 c_1 c_0) (f1 c_1 c_4))) (= c_0 c_4) )(or (not (= (f1 c_1 c_1) (f1 c_1 c_0))) (= c_1 c_0) )(or (not (= (f1 c_1 c_1) (f1 c_1 c_1))) (= c_1 c_1) )(or (not (= (f1 c_1 c_1) (f1 c_1 c_2))) (= c_1 c_2) )(or (not (= (f1 c_1 c_1) (f1 c_1 c_3))) (= c_1 c_3) )(or (not (= (f1 c_1 c_1) (f1 c_1 c_4))) (= c_1 c_4) )(or (not (= (f1 c_1 c_2) (f1 c_1 c_0))) (= c_2 c_0) )(or (not (= (f1 c_1 c_2) (f1 c_1 c_1))) (= c_2 c_1) )(or (not (= (f1 c_1 c_2) (f1 c_1 c_2))) (= c_2 c_2) )(or (not (= (f1 c_1 c_2) (f1 c_1 c_3))) (= c_2 c_3) )(or (not (= (f1 c_1 c_2) (f1 c_1 c_4))) (= c_2 c_4) )(or (not (= (f1 c_1 c_3) (f1 c_1 c_0))) (= c_3 c_0) )(or (not (= (f1 c_1 c_3) (f1 c_1 c_1))) (= c_3 c_1) )(or (not (= (f1 c_1 c_3) (f1 c_1 c_2))) (= c_3 c_2) )(or (not (= (f1 c_1 c_3) (f1 c_1 c_3))) (= c_3 c_3) )(or (not (= (f1 c_1 c_3) (f1 c_1 c_4))) (= c_3 c_4) )(or (not (= (f1 c_1 c_4) (f1 c_1 c_0))) (= c_4 c_0) )(or (not (= (f1 c_1 c_4) (f1 c_1 c_1))) (= c_4 c_1) )(or (not (= (f1 c_1 c_4) (f1 c_1 c_2))) (= c_4 c_2) )(or (not (= (f1 c_1 c_4) (f1 c_1 c_3))) (= c_4 c_3) )(or (not (= (f1 c_1 c_4) (f1 c_1 c_4))) (= c_4 c_4) )(or (not (= (f1 c_2 c_0) (f1 c_2 c_0))) (= c_0 c_0) )(or (not (= (f1 c_2 c_0) (f1 c_2 c_1))) (= c_0 c_1) )(or (not (= (f1 c_2 c_0) (f1 c_2 c_2))) (= c_0 c_2) )(or (not (= (f1 c_2 c_0) (f1 c_2 c_3))) (= c_0 c_3) )(or (not (= (f1 c_2 c_0) (f1 c_2 c_4))) (= c_0 c_4) )(or (not (= (f1 c_2 c_1) (f1 c_2 c_0))) (= c_1 c_0) )(or (not (= (f1 c_2 c_1) (f1 c_2 c_1))) (= c_1 c_1) )(or (not (= (f1 c_2 c_1) (f1 c_2 c_2))) (= c_1 c_2) )(or (not (= (f1 c_2 c_1) (f1 c_2 c_3))) (= c_1 c_3) )(or (not (= (f1 c_2 c_1) (f1 c_2 c_4))) (= c_1 c_4) )(or (not (= (f1 c_2 c_2) (f1 c_2 c_0))) (= c_2 c_0) )(or (not (= (f1 c_2 c_2) (f1 c_2 c_1))) (= c_2 c_1) )(or (not (= (f1 c_2 c_2) (f1 c_2 c_2))) (= c_2 c_2) )(or (not (= (f1 c_2 c_2) (f1 c_2 c_3))) (= c_2 c_3) )(or (not (= (f1 c_2 c_2) (f1 c_2 c_4))) (= c_2 c_4) )(or (not (= (f1 c_2 c_3) (f1 c_2 c_0))) (= c_3 c_0) )(or (not (= (f1 c_2 c_3) (f1 c_2 c_1))) (= c_3 c_1) )(or (not (= (f1 c_2 c_3) (f1 c_2 c_2))) (= c_3 c_2) )(or (not (= (f1 c_2 c_3) (f1 c_2 c_3))) (= c_3 c_3) )(or (not (= (f1 c_2 c_3) (f1 c_2 c_4))) (= c_3 c_4) )(or (not (= (f1 c_2 c_4) (f1 c_2 c_0))) (= c_4 c_0) )(or (not (= (f1 c_2 c_4) (f1 c_2 c_1))) (= c_4 c_1) )(or (not (= (f1 c_2 c_4) (f1 c_2 c_2))) (= c_4 c_2) )(or (not (= (f1 c_2 c_4) (f1 c_2 c_3))) (= c_4 c_3) )(or (not (= (f1 c_2 c_4) (f1 c_2 c_4))) (= c_4 c_4) )(or (not (= (f1 c_3 c_0) (f1 c_3 c_0))) (= c_0 c_0) )(or (not (= (f1 c_3 c_0) (f1 c_3 c_1))) (= c_0 c_1) )(or (not (= (f1 c_3 c_0) (f1 c_3 c_2))) (= c_0 c_2) )(or (not (= (f1 c_3 c_0) (f1 c_3 c_3))) (= c_0 c_3) )(or (not (= (f1 c_3 c_0) (f1 c_3 c_4))) (= c_0 c_4) )(or (not (= (f1 c_3 c_1) (f1 c_3 c_0))) (= c_1 c_0) )(or (not (= (f1 c_3 c_1) (f1 c_3 c_1))) (= c_1 c_1) )(or (not (= (f1 c_3 c_1) (f1 c_3 c_2))) (= c_1 c_2) )(or (not (= (f1 c_3 c_1) (f1 c_3 c_3))) (= c_1 c_3) )(or (not (= (f1 c_3 c_1) (f1 c_3 c_4))) (= c_1 c_4) )(or (not (= (f1 c_3 c_2) (f1 c_3 c_0))) (= c_2 c_0) )(or (not (= (f1 c_3 c_2) (f1 c_3 c_1))) (= c_2 c_1) )(or (not (= (f1 c_3 c_2) (f1 c_3 c_2))) (= c_2 c_2) )(or (not (= (f1 c_3 c_2) (f1 c_3 c_3))) (= c_2 c_3) )(or (not (= (f1 c_3 c_2) (f1 c_3 c_4))) (= c_2 c_4) )(or (not (= (f1 c_3 c_3) (f1 c_3 c_0))) (= c_3 c_0) )(or (not (= (f1 c_3 c_3) (f1 c_3 c_1))) (= c_3 c_1) )(or (not (= (f1 c_3 c_3) (f1 c_3 c_2))) (= c_3 c_2) )(or (not (= (f1 c_3 c_3) (f1 c_3 c_3))) (= c_3 c_3) )(or (not (= (f1 c_3 c_3) (f1 c_3 c_4))) (= c_3 c_4) )(or (not (= (f1 c_3 c_4) (f1 c_3 c_0))) (= c_4 c_0) )(or (not (= (f1 c_3 c_4) (f1 c_3 c_1))) (= c_4 c_1) )(or (not (= (f1 c_3 c_4) (f1 c_3 c_2))) (= c_4 c_2) )(or (not (= (f1 c_3 c_4) (f1 c_3 c_3))) (= c_4 c_3) )(or (not (= (f1 c_3 c_4) (f1 c_3 c_4))) (= c_4 c_4) )(or (not (= (f1 c_4 c_0) (f1 c_4 c_0))) (= c_0 c_0) )(or (not (= (f1 c_4 c_0) (f1 c_4 c_1))) (= c_0 c_1) )(or (not (= (f1 c_4 c_0) (f1 c_4 c_2))) (= c_0 c_2) )(or (not (= (f1 c_4 c_0) (f1 c_4 c_3))) (= c_0 c_3) )(or (not (= (f1 c_4 c_0) (f1 c_4 c_4))) (= c_0 c_4) )(or (not (= (f1 c_4 c_1) (f1 c_4 c_0))) (= c_1 c_0) )(or (not (= (f1 c_4 c_1) (f1 c_4 c_1))) (= c_1 c_1) )(or (not (= (f1 c_4 c_1) (f1 c_4 c_2))) (= c_1 c_2) )(or (not (= (f1 c_4 c_1) (f1 c_4 c_3))) (= c_1 c_3) )(or (not (= (f1 c_4 c_1) (f1 c_4 c_4))) (= c_1 c_4) )(or (not (= (f1 c_4 c_2) (f1 c_4 c_0))) (= c_2 c_0) )(or (not (= (f1 c_4 c_2) (f1 c_4 c_1))) (= c_2 c_1) )(or (not (= (f1 c_4 c_2) (f1 c_4 c_2))) (= c_2 c_2) )(or (not (= (f1 c_4 c_2) (f1 c_4 c_3))) (= c_2 c_3) )(or (not (= (f1 c_4 c_2) (f1 c_4 c_4))) (= c_2 c_4) )(or (not (= (f1 c_4 c_3) (f1 c_4 c_0))) (= c_3 c_0) )(or (not (= (f1 c_4 c_3) (f1 c_4 c_1))) (= c_3 c_1) )(or (not (= (f1 c_4 c_3) (f1 c_4 c_2))) (= c_3 c_2) )(or (not (= (f1 c_4 c_3) (f1 c_4 c_3))) (= c_3 c_3) )(or (not (= (f1 c_4 c_3) (f1 c_4 c_4))) (= c_3 c_4) )(or (not (= (f1 c_4 c_4) (f1 c_4 c_0))) (= c_4 c_0) )(or (not (= (f1 c_4 c_4) (f1 c_4 c_1))) (= c_4 c_1) )(or (not (= (f1 c_4 c_4) (f1 c_4 c_2))) (= c_4 c_2) )(or (not (= (f1 c_4 c_4) (f1 c_4 c_3))) (= c_4 c_3) )(or (not (= (f1 c_4 c_4) (f1 c_4 c_4))) (= c_4 c_4) )(or (not (= (f1 c_0 c_0) (f1 c_0 c_0))) (= c_0 c_0) )(or (not (= (f1 c_0 c_0) (f1 c_1 c_0))) (= c_0 c_1) )(or (not (= (f1 c_0 c_0) (f1 c_2 c_0))) (= c_0 c_2) )(or (not (= (f1 c_0 c_0) (f1 c_3 c_0))) (= c_0 c_3) )(or (not (= (f1 c_0 c_0) (f1 c_4 c_0))) (= c_0 c_4) )(or (not (= (f1 c_0 c_1) (f1 c_0 c_1))) (= c_0 c_0) )(or (not (= (f1 c_0 c_1) (f1 c_1 c_1))) (= c_0 c_1) )(or (not (= (f1 c_0 c_1) (f1 c_2 c_1))) (= c_0 c_2) )(or (not (= (f1 c_0 c_1) (f1 c_3 c_1))) (= c_0 c_3) )(or (not (= (f1 c_0 c_1) (f1 c_4 c_1))) (= c_0 c_4) )(or (not (= (f1 c_0 c_2) (f1 c_0 c_2))) (= c_0 c_0) )(or (not (= (f1 c_0 c_2) (f1 c_1 c_2))) (= c_0 c_1) )(or (not (= (f1 c_0 c_2) (f1 c_2 c_2))) (= c_0 c_2) )(or (not (= (f1 c_0 c_2) (f1 c_3 c_2))) (= c_0 c_3) )(or (not (= (f1 c_0 c_2) (f1 c_4 c_2))) (= c_0 c_4) )(or (not (= (f1 c_0 c_3) (f1 c_0 c_3))) (= c_0 c_0) )(or (not (= (f1 c_0 c_3) (f1 c_1 c_3))) (= c_0 c_1) )(or (not (= (f1 c_0 c_3) (f1 c_2 c_3))) (= c_0 c_2) )(or (not (= (f1 c_0 c_3) (f1 c_3 c_3))) (= c_0 c_3) )(or (not (= (f1 c_0 c_3) (f1 c_4 c_3))) (= c_0 c_4) )(or (not (= (f1 c_0 c_4) (f1 c_0 c_4))) (= c_0 c_0) )(or (not (= (f1 c_0 c_4) (f1 c_1 c_4))) (= c_0 c_1) )(or (not (= (f1 c_0 c_4) (f1 c_2 c_4))) (= c_0 c_2) )(or (not (= (f1 c_0 c_4) (f1 c_3 c_4))) (= c_0 c_3) )(or (not (= (f1 c_0 c_4) (f1 c_4 c_4))) (= c_0 c_4) )(or (not (= (f1 c_1 c_0) (f1 c_0 c_0))) (= c_1 c_0) )(or (not (= (f1 c_1 c_0) (f1 c_1 c_0))) (= c_1 c_1) )(or (not (= (f1 c_1 c_0) (f1 c_2 c_0))) (= c_1 c_2) )(or (not (= (f1 c_1 c_0) (f1 c_3 c_0))) (= c_1 c_3) )(or (not (= (f1 c_1 c_0) (f1 c_4 c_0))) (= c_1 c_4) )(or (not (= (f1 c_1 c_1) (f1 c_0 c_1))) (= c_1 c_0) )(or (not (= (f1 c_1 c_1) (f1 c_1 c_1))) (= c_1 c_1) )(or (not (= (f1 c_1 c_1) (f1 c_2 c_1))) (= c_1 c_2) )(or (not (= (f1 c_1 c_1) (f1 c_3 c_1))) (= c_1 c_3) )(or (not (= (f1 c_1 c_1) (f1 c_4 c_1))) (= c_1 c_4) )(or (not (= (f1 c_1 c_2) (f1 c_0 c_2))) (= c_1 c_0) )(or (not (= (f1 c_1 c_2) (f1 c_1 c_2))) (= c_1 c_1) )(or (not (= (f1 c_1 c_2) (f1 c_2 c_2))) (= c_1 c_2) )(or (not (= (f1 c_1 c_2) (f1 c_3 c_2))) (= c_1 c_3) )(or (not (= (f1 c_1 c_2) (f1 c_4 c_2))) (= c_1 c_4) )(or (not (= (f1 c_1 c_3) (f1 c_0 c_3))) (= c_1 c_0) )(or (not (= (f1 c_1 c_3) (f1 c_1 c_3))) (= c_1 c_1) )(or (not (= (f1 c_1 c_3) (f1 c_2 c_3))) (= c_1 c_2) )(or (not (= (f1 c_1 c_3) (f1 c_3 c_3))) (= c_1 c_3) )(or (not (= (f1 c_1 c_3) (f1 c_4 c_3))) (= c_1 c_4) )(or (not (= (f1 c_1 c_4) (f1 c_0 c_4))) (= c_1 c_0) )(or (not (= (f1 c_1 c_4) (f1 c_1 c_4))) (= c_1 c_1) )(or (not (= (f1 c_1 c_4) (f1 c_2 c_4))) (= c_1 c_2) )(or (not (= (f1 c_1 c_4) (f1 c_3 c_4))) (= c_1 c_3) )(or (not (= (f1 c_1 c_4) (f1 c_4 c_4))) (= c_1 c_4) )(or (not (= (f1 c_2 c_0) (f1 c_0 c_0))) (= c_2 c_0) )(or (not (= (f1 c_2 c_0) (f1 c_1 c_0))) (= c_2 c_1) )(or (not (= (f1 c_2 c_0) (f1 c_2 c_0))) (= c_2 c_2) )(or (not (= (f1 c_2 c_0) (f1 c_3 c_0))) (= c_2 c_3) )(or (not (= (f1 c_2 c_0) (f1 c_4 c_0))) (= c_2 c_4) )(or (not (= (f1 c_2 c_1) (f1 c_0 c_1))) (= c_2 c_0) )(or (not (= (f1 c_2 c_1) (f1 c_1 c_1))) (= c_2 c_1) )(or (not (= (f1 c_2 c_1) (f1 c_2 c_1))) (= c_2 c_2) )(or (not (= (f1 c_2 c_1) (f1 c_3 c_1))) (= c_2 c_3) )(or (not (= (f1 c_2 c_1) (f1 c_4 c_1))) (= c_2 c_4) )(or (not (= (f1 c_2 c_2) (f1 c_0 c_2))) (= c_2 c_0) )(or (not (= (f1 c_2 c_2) (f1 c_1 c_2))) (= c_2 c_1) )(or (not (= (f1 c_2 c_2) (f1 c_2 c_2))) (= c_2 c_2) )(or (not (= (f1 c_2 c_2) (f1 c_3 c_2))) (= c_2 c_3) )(or (not (= (f1 c_2 c_2) (f1 c_4 c_2))) (= c_2 c_4) )(or (not (= (f1 c_2 c_3) (f1 c_0 c_3))) (= c_2 c_0) )(or (not (= (f1 c_2 c_3) (f1 c_1 c_3))) (= c_2 c_1) )(or (not (= (f1 c_2 c_3) (f1 c_2 c_3))) (= c_2 c_2) )(or (not (= (f1 c_2 c_3) (f1 c_3 c_3))) (= c_2 c_3) )(or (not (= (f1 c_2 c_3) (f1 c_4 c_3))) (= c_2 c_4) )(or (not (= (f1 c_2 c_4) (f1 c_0 c_4))) (= c_2 c_0) )(or (not (= (f1 c_2 c_4) (f1 c_1 c_4))) (= c_2 c_1) )(or (not (= (f1 c_2 c_4) (f1 c_2 c_4))) (= c_2 c_2) )(or (not (= (f1 c_2 c_4) (f1 c_3 c_4))) (= c_2 c_3) )(or (not (= (f1 c_2 c_4) (f1 c_4 c_4))) (= c_2 c_4) )(or (not (= (f1 c_3 c_0) (f1 c_0 c_0))) (= c_3 c_0) )(or (not (= (f1 c_3 c_0) (f1 c_1 c_0))) (= c_3 c_1) )(or (not (= (f1 c_3 c_0) (f1 c_2 c_0))) (= c_3 c_2) )(or (not (= (f1 c_3 c_0) (f1 c_3 c_0))) (= c_3 c_3) )(or (not (= (f1 c_3 c_0) (f1 c_4 c_0))) (= c_3 c_4) )(or (not (= (f1 c_3 c_1) (f1 c_0 c_1))) (= c_3 c_0) )(or (not (= (f1 c_3 c_1) (f1 c_1 c_1))) (= c_3 c_1) )(or (not (= (f1 c_3 c_1) (f1 c_2 c_1))) (= c_3 c_2) )(or (not (= (f1 c_3 c_1) (f1 c_3 c_1))) (= c_3 c_3) )(or (not (= (f1 c_3 c_1) (f1 c_4 c_1))) (= c_3 c_4) )(or (not (= (f1 c_3 c_2) (f1 c_0 c_2))) (= c_3 c_0) )(or (not (= (f1 c_3 c_2) (f1 c_1 c_2))) (= c_3 c_1) )(or (not (= (f1 c_3 c_2) (f1 c_2 c_2))) (= c_3 c_2) )(or (not (= (f1 c_3 c_2) (f1 c_3 c_2))) (= c_3 c_3) )(or (not (= (f1 c_3 c_2) (f1 c_4 c_2))) (= c_3 c_4) )(or (not (= (f1 c_3 c_3) (f1 c_0 c_3))) (= c_3 c_0) )(or (not (= (f1 c_3 c_3) (f1 c_1 c_3))) (= c_3 c_1) )(or (not (= (f1 c_3 c_3) (f1 c_2 c_3))) (= c_3 c_2) )(or (not (= (f1 c_3 c_3) (f1 c_3 c_3))) (= c_3 c_3) )(or (not (= (f1 c_3 c_3) (f1 c_4 c_3))) (= c_3 c_4) )(or (not (= (f1 c_3 c_4) (f1 c_0 c_4))) (= c_3 c_0) )(or (not (= (f1 c_3 c_4) (f1 c_1 c_4))) (= c_3 c_1) )(or (not (= (f1 c_3 c_4) (f1 c_2 c_4))) (= c_3 c_2) )(or (not (= (f1 c_3 c_4) (f1 c_3 c_4))) (= c_3 c_3) )(or (not (= (f1 c_3 c_4) (f1 c_4 c_4))) (= c_3 c_4) )(or (not (= (f1 c_4 c_0) (f1 c_0 c_0))) (= c_4 c_0) )(or (not (= (f1 c_4 c_0) (f1 c_1 c_0))) (= c_4 c_1) )(or (not (= (f1 c_4 c_0) (f1 c_2 c_0))) (= c_4 c_2) )(or (not (= (f1 c_4 c_0) (f1 c_3 c_0))) (= c_4 c_3) )(or (not (= (f1 c_4 c_0) (f1 c_4 c_0))) (= c_4 c_4) )(or (not (= (f1 c_4 c_1) (f1 c_0 c_1))) (= c_4 c_0) )(or (not (= (f1 c_4 c_1) (f1 c_1 c_1))) (= c_4 c_1) )(or (not (= (f1 c_4 c_1) (f1 c_2 c_1))) (= c_4 c_2) )(or (not (= (f1 c_4 c_1) (f1 c_3 c_1))) (= c_4 c_3) )(or (not (= (f1 c_4 c_1) (f1 c_4 c_1))) (= c_4 c_4) )(or (not (= (f1 c_4 c_2) (f1 c_0 c_2))) (= c_4 c_0) )(or (not (= (f1 c_4 c_2) (f1 c_1 c_2))) (= c_4 c_1) )(or (not (= (f1 c_4 c_2) (f1 c_2 c_2))) (= c_4 c_2) )(or (not (= (f1 c_4 c_2) (f1 c_3 c_2))) (= c_4 c_3) )(or (not (= (f1 c_4 c_2) (f1 c_4 c_2))) (= c_4 c_4) )(or (not (= (f1 c_4 c_3) (f1 c_0 c_3))) (= c_4 c_0) )(or (not (= (f1 c_4 c_3) (f1 c_1 c_3))) (= c_4 c_1) )(or (not (= (f1 c_4 c_3) (f1 c_2 c_3))) (= c_4 c_2) )(or (not (= (f1 c_4 c_3) (f1 c_3 c_3))) (= c_4 c_3) )(or (not (= (f1 c_4 c_3) (f1 c_4 c_3))) (= c_4 c_4) )(or (not (= (f1 c_4 c_4) (f1 c_0 c_4))) (= c_4 c_0) )(or (not (= (f1 c_4 c_4) (f1 c_1 c_4))) (= c_4 c_1) )(or (not (= (f1 c_4 c_4) (f1 c_2 c_4))) (= c_4 c_2) )(or (not (= (f1 c_4 c_4) (f1 c_3 c_4))) (= c_4 c_3) )(or (not (= (f1 c_4 c_4) (f1 c_4 c_4))) (= c_4 c_4) )(or (= (f1 c_0 c_0) c_0)(= (f1 c_0 c_0) c_1)(= (f1 c_0 c_0) c_2)(= (f1 c_0 c_0) c_3)(= (f1 c_0 c_0) c_4))(or (= (f1 c_0 c_1) c_0)(= (f1 c_0 c_1) c_1)(= (f1 c_0 c_1) c_2)(= (f1 c_0 c_1) c_3)(= (f1 c_0 c_1) c_4))(or (= (f1 c_0 c_2) c_0)(= (f1 c_0 c_2) c_1)(= (f1 c_0 c_2) c_2)(= (f1 c_0 c_2) c_3)(= (f1 c_0 c_2) c_4))(or (= (f1 c_0 c_3) c_0)(= (f1 c_0 c_3) c_1)(= (f1 c_0 c_3) c_2)(= (f1 c_0 c_3) c_3)(= (f1 c_0 c_3) c_4))(or (= (f1 c_0 c_4) c_0)(= (f1 c_0 c_4) c_1)(= (f1 c_0 c_4) c_2)(= (f1 c_0 c_4) c_3)(= (f1 c_0 c_4) c_4))(or (= (f1 c_1 c_0) c_0)(= (f1 c_1 c_0) c_1)(= (f1 c_1 c_0) c_2)(= (f1 c_1 c_0) c_3)(= (f1 c_1 c_0) c_4))(or (= (f1 c_1 c_1) c_0)(= (f1 c_1 c_1) c_1)(= (f1 c_1 c_1) c_2)(= (f1 c_1 c_1) c_3)(= (f1 c_1 c_1) c_4))(or (= (f1 c_1 c_2) c_0)(= (f1 c_1 c_2) c_1)(= (f1 c_1 c_2) c_2)(= (f1 c_1 c_2) c_3)(= (f1 c_1 c_2) c_4))(or (= (f1 c_1 c_3) c_0)(= (f1 c_1 c_3) c_1)(= (f1 c_1 c_3) c_2)(= (f1 c_1 c_3) c_3)(= (f1 c_1 c_3) c_4))(or (= (f1 c_1 c_4) c_0)(= (f1 c_1 c_4) c_1)(= (f1 c_1 c_4) c_2)(= (f1 c_1 c_4) c_3)(= (f1 c_1 c_4) c_4))(or (= (f1 c_2 c_0) c_0)(= (f1 c_2 c_0) c_1)(= (f1 c_2 c_0) c_2)(= (f1 c_2 c_0) c_3)(= (f1 c_2 c_0) c_4))(or (= (f1 c_2 c_1) c_0)(= (f1 c_2 c_1) c_1)(= (f1 c_2 c_1) c_2)(= (f1 c_2 c_1) c_3)(= (f1 c_2 c_1) c_4))(or (= (f1 c_2 c_2) c_0)(= (f1 c_2 c_2) c_1)(= (f1 c_2 c_2) c_2)(= (f1 c_2 c_2) c_3)(= (f1 c_2 c_2) c_4))(or (= (f1 c_2 c_3) c_0)(= (f1 c_2 c_3) c_1)(= (f1 c_2 c_3) c_2)(= (f1 c_2 c_3) c_3)(= (f1 c_2 c_3) c_4))(or (= (f1 c_2 c_4) c_0)(= (f1 c_2 c_4) c_1)(= (f1 c_2 c_4) c_2)(= (f1 c_2 c_4) c_3)(= (f1 c_2 c_4) c_4))(or (= (f1 c_3 c_0) c_0)(= (f1 c_3 c_0) c_1)(= (f1 c_3 c_0) c_2)(= (f1 c_3 c_0) c_3)(= (f1 c_3 c_0) c_4))(or (= (f1 c_3 c_1) c_0)(= (f1 c_3 c_1) c_1)(= (f1 c_3 c_1) c_2)(= (f1 c_3 c_1) c_3)(= (f1 c_3 c_1) c_4))(or (= (f1 c_3 c_2) c_0)(= (f1 c_3 c_2) c_1)(= (f1 c_3 c_2) c_2)(= (f1 c_3 c_2) c_3)(= (f1 c_3 c_2) c_4))(or (= (f1 c_3 c_3) c_0)(= (f1 c_3 c_3) c_1)(= (f1 c_3 c_3) c_2)(= (f1 c_3 c_3) c_3)(= (f1 c_3 c_3) c_4))(or (= (f1 c_3 c_4) c_0)(= (f1 c_3 c_4) c_1)(= (f1 c_3 c_4) c_2)(= (f1 c_3 c_4) c_3)(= (f1 c_3 c_4) c_4))(or (= (f1 c_4 c_0) c_0)(= (f1 c_4 c_0) c_1)(= (f1 c_4 c_0) c_2)(= (f1 c_4 c_0) c_3)(= (f1 c_4 c_0) c_4))(or (= (f1 c_4 c_1) c_0)(= (f1 c_4 c_1) c_1)(= (f1 c_4 c_1) c_2)(= (f1 c_4 c_1) c_3)(= (f1 c_4 c_1) c_4))(or (= (f1 c_4 c_2) c_0)(= (f1 c_4 c_2) c_1)(= (f1 c_4 c_2) c_2)(= (f1 c_4 c_2) c_3)(= (f1 c_4 c_2) c_4))(or (= (f1 c_4 c_3) c_0)(= (f1 c_4 c_3) c_1)(= (f1 c_4 c_3) c_2)(= (f1 c_4 c_3) c_3)(= (f1 c_4 c_3) c_4))(or (= (f1 c_4 c_4) c_0)(= (f1 c_4 c_4) c_1)(= (f1 c_4 c_4) c_2)(= (f1 c_4 c_4) c_3)(= (f1 c_4 c_4) c_4))(or (= (f2 c_0 c_0) c_0)(= (f2 c_0 c_0) c_1)(= (f2 c_0 c_0) c_2)(= (f2 c_0 c_0) c_3)(= (f2 c_0 c_0) c_4))(or (= (f2 c_0 c_1) c_0)(= (f2 c_0 c_1) c_1)(= (f2 c_0 c_1) c_2)(= (f2 c_0 c_1) c_3)(= (f2 c_0 c_1) c_4))(or (= (f2 c_0 c_2) c_0)(= (f2 c_0 c_2) c_1)(= (f2 c_0 c_2) c_2)(= (f2 c_0 c_2) c_3)(= (f2 c_0 c_2) c_4))(or (= (f2 c_0 c_3) c_0)(= (f2 c_0 c_3) c_1)(= (f2 c_0 c_3) c_2)(= (f2 c_0 c_3) c_3)(= (f2 c_0 c_3) c_4))(or (= (f2 c_0 c_4) c_0)(= (f2 c_0 c_4) c_1)(= (f2 c_0 c_4) c_2)(= (f2 c_0 c_4) c_3)(= (f2 c_0 c_4) c_4))(or (= (f2 c_1 c_0) c_0)(= (f2 c_1 c_0) c_1)(= (f2 c_1 c_0) c_2)(= (f2 c_1 c_0) c_3)(= (f2 c_1 c_0) c_4))(or (= (f2 c_1 c_1) c_0)(= (f2 c_1 c_1) c_1)(= (f2 c_1 c_1) c_2)(= (f2 c_1 c_1) c_3)(= (f2 c_1 c_1) c_4))(or (= (f2 c_1 c_2) c_0)(= (f2 c_1 c_2) c_1)(= (f2 c_1 c_2) c_2)(= (f2 c_1 c_2) c_3)(= (f2 c_1 c_2) c_4))(or (= (f2 c_1 c_3) c_0)(= (f2 c_1 c_3) c_1)(= (f2 c_1 c_3) c_2)(= (f2 c_1 c_3) c_3)(= (f2 c_1 c_3) c_4))(or (= (f2 c_1 c_4) c_0)(= (f2 c_1 c_4) c_1)(= (f2 c_1 c_4) c_2)(= (f2 c_1 c_4) c_3)(= (f2 c_1 c_4) c_4))(or (= (f2 c_2 c_0) c_0)(= (f2 c_2 c_0) c_1)(= (f2 c_2 c_0) c_2)(= (f2 c_2 c_0) c_3)(= (f2 c_2 c_0) c_4))(or (= (f2 c_2 c_1) c_0)(= (f2 c_2 c_1) c_1)(= (f2 c_2 c_1) c_2)(= (f2 c_2 c_1) c_3)(= (f2 c_2 c_1) c_4))(or (= (f2 c_2 c_2) c_0)(= (f2 c_2 c_2) c_1)(= (f2 c_2 c_2) c_2)(= (f2 c_2 c_2) c_3)(= (f2 c_2 c_2) c_4))(or (= (f2 c_2 c_3) c_0)(= (f2 c_2 c_3) c_1)(= (f2 c_2 c_3) c_2)(= (f2 c_2 c_3) c_3)(= (f2 c_2 c_3) c_4))(or (= (f2 c_2 c_4) c_0)(= (f2 c_2 c_4) c_1)(= (f2 c_2 c_4) c_2)(= (f2 c_2 c_4) c_3)(= (f2 c_2 c_4) c_4))(or (= (f2 c_3 c_0) c_0)(= (f2 c_3 c_0) c_1)(= (f2 c_3 c_0) c_2)(= (f2 c_3 c_0) c_3)(= (f2 c_3 c_0) c_4))(or (= (f2 c_3 c_1) c_0)(= (f2 c_3 c_1) c_1)(= (f2 c_3 c_1) c_2)(= (f2 c_3 c_1) c_3)(= (f2 c_3 c_1) c_4))(or (= (f2 c_3 c_2) c_0)(= (f2 c_3 c_2) c_1)(= (f2 c_3 c_2) c_2)(= (f2 c_3 c_2) c_3)(= (f2 c_3 c_2) c_4))(or (= (f2 c_3 c_3) c_0)(= (f2 c_3 c_3) c_1)(= (f2 c_3 c_3) c_2)(= (f2 c_3 c_3) c_3)(= (f2 c_3 c_3) c_4))(or (= (f2 c_3 c_4) c_0)(= (f2 c_3 c_4) c_1)(= (f2 c_3 c_4) c_2)(= (f2 c_3 c_4) c_3)(= (f2 c_3 c_4) c_4))(or (= (f2 c_4 c_0) c_0)(= (f2 c_4 c_0) c_1)(= (f2 c_4 c_0) c_2)(= (f2 c_4 c_0) c_3)(= (f2 c_4 c_0) c_4))(or (= (f2 c_4 c_1) c_0)(= (f2 c_4 c_1) c_1)(= (f2 c_4 c_1) c_2)(= (f2 c_4 c_1) c_3)(= (f2 c_4 c_1) c_4))(or (= (f2 c_4 c_2) c_0)(= (f2 c_4 c_2) c_1)(= (f2 c_4 c_2) c_2)(= (f2 c_4 c_2) c_3)(= (f2 c_4 c_2) c_4))(or (= (f2 c_4 c_3) c_0)(= (f2 c_4 c_3) c_1)(= (f2 c_4 c_3) c_2)(= (f2 c_4 c_3) c_3)(= (f2 c_4 c_3) c_4))(or (= (f2 c_4 c_4) c_0)(= (f2 c_4 c_4) c_1)(= (f2 c_4 c_4) c_2)(= (f2 c_4 c_4) c_3)(= (f2 c_4 c_4) c_4))(or (= c3 c_0)(= c3 c_1)(= c3 c_2)(= c3 c_3)(= c3 c_4))(or (= c4 c_0)(= c4 c_1)(= c4 c_2)(= c4 c_3)(= c4 c_4))(or (= c5 c_0)(= c5 c_1)(= c5 c_2)(= c5 c_3)(= c5 c_4))))
