results/res_prop_muc/res_Cimatti_mathsat_cores/QF_UF/PEQ002_size5.smt.smt2.out

real	0m1.636s
user	0m1.572s
sys	0m0.026s
