results/res_prop_muc/res_Cimatti_mathsat_cores/QF_UF/PEQ002_size5.smt.smt2.res
unsat
( _c0
  _c1
  _c10
  _c100
  _c101
  _c102
  _c103
  _c104
  _c105
  _c106
  _c107
  _c108
  _c109
  _c11
  _c110
  _c111
  _c112
  _c113
  _c114
  _c115
  _c116
  _c117
  _c118
  _c119
  _c12
  _c120
  _c125
  _c126
  _c127
  _c128
  _c129
  _c13
  _c130
  _c131
  _c132
  _c133
  _c134
  _c136
  _c137
  _c138
  _c139
  _c14
  _c140
  _c141
  _c142
  _c143
  _c144
  _c146
  _c147
  _c148
  _c149
  _c15
  _c151
  _c152
  _c153
  _c154
  _c155
  _c156
  _c157
  _c158
  _c159
  _c16
  _c160
  _c161
  _c162
  _c163
  _c164
  _c165
  _c166
  _c167
  _c168
  _c169
  _c17
  _c170
  _c171
  _c172
  _c173
  _c174
  _c175
  _c176
  _c177
  _c178
  _c179
  _c18
  _c180
  _c181
  _c182
  _c183
  _c184
  _c185
  _c186
  _c187
  _c188
  _c189
  _c19
  _c190
  _c191
  _c192
  _c193
  _c194
  _c195
  _c196
  _c197
  _c198
  _c199
  _c2
  _c20
  _c200
  _c201
  _c202
  _c203
  _c204
  _c205
  _c206
  _c207
  _c208
  _c209
  _c21
  _c210
  _c211
  _c212
  _c213
  _c214
  _c215
  _c216
  _c217
  _c218
  _c219
  _c22
  _c220
  _c221
  _c222
  _c223
  _c224
  _c225
  _c226
  _c227
  _c228
  _c229
  _c23
  _c230
  _c231
  _c232
  _c233
  _c234
  _c235
  _c236
  _c237
  _c238
  _c239
  _c24
  _c240
  _c241
  _c242
  _c243
  _c244
  _c245
  _c246
  _c247
  _c248
  _c249
  _c25
  _c250
  _c251
  _c252
  _c253
  _c254
  _c255
  _c256
  _c257
  _c258
  _c259
  _c26
  _c260
  _c261
  _c262
  _c263
  _c264
  _c265
  _c266
  _c267
  _c268
  _c269
  _c27
  _c270
  _c271
  _c272
  _c273
  _c274
  _c275
  _c276
  _c278
  _c279
  _c28
  _c280
  _c281
  _c282
  _c283
  _c284
  _c288
  _c29
  _c291
  _c292
  _c3
  _c30
  _c300
  _c301
  _c302
  _c303
  _c304
  _c305
  _c308
  _c309
  _c31
  _c311
  _c312
  _c318
  _c319
  _c32
  _c320
  _c321
  _c322
  _c323
  _c324
  _c328
  _c33
  _c331
  _c332
  _c338
  _c339
  _c34
  _c340
  _c341
  _c342
  _c343
  _c344
  _c35
  _c351
  _c352
  _c358
  _c359
  _c36
  _c360
  _c361
  _c362
  _c363
  _c364
  _c37
  _c377
  _c379
  _c38
  _c380
  _c383
  _c384
  _c387
  _c388
  _c39
  _c391
  _c392
  _c395
  _c396
  _c4
  _c40
  _c400
  _c401
  _c403
  _c404
  _c405
  _c406
  _c407
  _c408
  _c409
  _c41
  _c410
  _c411
  _c412
  _c413
  _c414
  _c415
  _c416
  _c417
  _c418
  _c419
  _c42
  _c420
  _c421
  _c423
  _c424
  _c425
  _c427
  _c428
  _c429
  _c43
  _c431
  _c432
  _c433
  _c435
  _c436
  _c438
  _c44
  _c440
  _c444
  _c448
  _c45
  _c452
  _c456
  _c46
  _c47
  _c477
  _c478
  _c479
  _c48
  _c480
  _c481
  _c482
  _c484
  _c485
  _c486
  _c487
  _c488
  _c489
  _c49
  _c490
  _c491
  _c492
  _c493
  _c494
  _c495
  _c496
  _c497
  _c498
  _c499
  _c5
  _c50
  _c500
  _c501
  _c502
  _c503
  _c504
  _c505
  _c506
  _c507
  _c508
  _c51
  _c510
  _c512
  _c516
  _c52
  _c524
  _c527
  _c528
  _c529
  _c53
  _c530
  _c531
  _c532
  _c533
  _c534
  _c535
  _c536
  _c537
  _c538
  _c54
  _c55
  _c56
  _c57
  _c58
  _c59
  _c6
  _c60
  _c61
  _c62
  _c63
  _c64
  _c65
  _c66
  _c67
  _c68
  _c69
  _c7
  _c70
  _c71
  _c72
  _c73
  _c74
  _c75
  _c76
  _c77
  _c78
  _c79
  _c8
  _c80
  _c81
  _c82
  _c83
  _c84
  _c85
  _c86
  _c87
  _c88
  _c89
  _c9
  _c90
  _c91
  _c92
  _c93
  _c94
  _c95
  _c96
  _c97
  _c98
  _c99 )
